% File represents an instance of a Composite Structure problem to be solved by a CP framework
% Created on 2025-03-26 10:41:15.791
T = 54;
n = 9;
m = 12;
edges = [(2, 1),
(4, 5),
(8, 7),
(2, 3),
(5, 6),
(8, 9),
(4, 1),
(7, 4),
(2, 5),
(8, 5),
(3, 6),
(9, 6)];
counts = [|16, 12, 16, 4,
|16, 16, 16, 6,
|16, 10, 16, 6,
|16, 14, 16, 4,
|16, 12, 16, 4,
|16, 8, 16, 2,
|16, 14, 16, 6,
|16, 14, 16, 8,
|16, 12, 16, 4|];
